(set-info :smt-lib-version 2.6)
(set-logic QF_S)
(set-info :source |
Generated by: Hongjian Jiang, Oliver Markgraf, Daniel Stan, Anthony W. Lin, Philipp Ruemmer
Generated on: 2025-04-11
Application: Using String Solvers to solve RMC problems encoded as CHC over Strings
Target solver: cvc5, OSTRICH, Z3, Z3alpha, Z3-noodler
Time limit: 60.0
Benchmarks are extracted by running HornStr https://arg-git.informatik.uni-kl.de/pub/string-chc-lib on all benchmarks
provided in the repository and gathering the string queries sent to the string solvers.
|)
(set-info :license "https://creativecommons.org/licenses/by/4.0/")
(set-info :category "industrial")
(set-info :status unknown)
(declare-fun varout () String)
(assert (let ((a!1 (re.* (re.union (re.union (str.to_re "M") (str.to_re "U"))
                           (str.to_re "I")))))
  (str.in_re varout a!1)))
(declare-fun varin () String)
(assert (let ((a!1 (re.* (re.union (re.union (str.to_re "M") (str.to_re "U"))
                           (str.to_re "I")))))
  (str.in_re varin a!1)))
(declare-fun X () String)
(declare-fun isin () Bool)
(declare-fun isout () Bool)
(assert (and (= X "MI") (not isin) (= X varout) isout))
(assert (let ((a!1 (re.* (re.++ (str.to_re "U")
                        (re.union (str.to_re "M") (str.to_re "I")))))
      (a!4 (re.union (re.union (str.to_re "M") (str.to_re "I"))
                     (re.++ (str.to_re "U") (str.to_re "U"))))
      (a!7 (re.union (re.union (str.to_re "M") (str.to_re "U"))
                     (re.++ (str.to_re "I")
                            (re.union (str.to_re "M") (str.to_re "I"))))))
(let ((a!2 (re.++ (re.++ (str.to_re "U")
                         (re.union (str.to_re "M") (str.to_re "I")))
                  (re.++ a!1 (str.to_re "U"))))
      (a!5 (re.++ (re.++ (str.to_re "U")
                         (re.union (str.to_re "M") (str.to_re "I")))
                  (re.++ a!1 a!4)))
      (a!8 (re.union (re.++ (str.to_re "I") (str.to_re "U"))
                     (re.++ a!7 (re.++ a!1 a!4))))
      (a!9 (re.union (str.to_re "I") (re.++ a!7 (re.++ a!1 (str.to_re "U"))))))
(let ((a!3 (re.++ (re.union (str.to_re "M") (str.to_re "I"))
                  (re.++ a!1 (re.union (str.to_re "U") a!2))))
      (a!6 (re.union (str.to_re "U")
                     (re.++ (re.union (str.to_re "M") (str.to_re "I"))
                            (re.++ a!1 (re.union a!4 a!5)))))
      (a!10 (re.union a!9 (re.++ a!8 (re.++ (re.* a!8) a!9)))))
(let ((a!11 (re.union (re.union (str.to_re "") a!3)
                      (re.++ a!6 (re.++ (re.* a!8) a!10)))))
  (str.in_re varout a!11))))))
(check-sat)
(exit)
